99 300 146 149 111 119 104 117 129 110 105 122 136 116 134 143 129 113 117 117 110 120 113 112 146 132 148 100 130 100 102 121 125 148 119 111 141 148 128 120 107 107 116 117 149 100 110 127 138 101 118 122 146 105 108 115 137 106 115 141 131 142 136 105 140 104 141 130 101 143 124 134 125 115 100 123 140 135 150 127 110 143 124 106 148 132 146 109 112 111 150 143 102 136 123 116 114 138 121 141 131 